100
128
50
59
16
10
49
47
48
39
8
59
29
37
33
58
21
25
22
4
18
2
55
25
18
3
23
28
46
54
3
43
22
45
16
11
54
63
64
64
49
26
53
63
31
53
26
64
7
56
24
32
25
63
64
46
34
63
38
44
35
23
40
53
19
56
64
23
43
57
39
30
28
3
23
24
50
23
58
19
64
27
49
36
31
22
33
30
43
43
1
51
64
64
1
47
35
46
29
37
37
53